100
200
160
158
157
155
153
150
149
149
147
146
146
146
145
145
143
140
139
138
136
135
131
129
129
128
127
127
126
125
124
123
122
121
121
121
120
120
119
118
117
117
114
114
106
105
104
104
102
102
101
100
99
96
96
93
92
91
91
89
89
85
85
83
83
82
82
80
79
78
78
77
77
75
74
73
72
72
69
66
66
64
64
64
63
63
62
62
61
60
59
59
57
54
52
52
51
50
47
44
43
43
